(set-info :smt-lib-version 2.6)
(set-logic QF_NIA)
(set-info :source |
Generated by: Cristina Borralleras, Daniel Larraz, Albert Oliveras, Enric Rodriguez-Carbonell, Albert Rubio
Generated on: 2017-04-27
Generator: VeryMax
Application: Termination proving
Target solver: barcelogic
|)
(set-info :license "https://creativecommons.org/licenses/by/4.0/")
(set-info :category "industrial")
(set-info :status sat)
(declare-fun Nl2main_x1 () Int)
(declare-fun Nl2main_y1 () Int)
(declare-fun Nl2main_z1 () Int)
(declare-fun Nl2main_res1 () Int)
(declare-fun Nl2main_x2 () Int)
(declare-fun Nl2main_y2 () Int)
(declare-fun Nl2main_z2 () Int)
(declare-fun Nl2main_res2 () Int)
(declare-fun Nl2main_x3 () Int)
(declare-fun Nl2main_y3 () Int)
(declare-fun Nl2main_z3 () Int)
(declare-fun Nl2main_res3 () Int)
(declare-fun lam0n0 () Int)
(declare-fun lam0n1 () Int)
(declare-fun lam0n2 () Int)
(declare-fun lam0n4 () Int)
(declare-fun lam0n5 () Int)
(declare-fun lam0n6 () Int)
(declare-fun Nl2CT1 () Int)
(declare-fun Nl2CT2 () Int)
(declare-fun Nl2CT3 () Int)
(declare-fun lam0n3 () Int)
(declare-fun lam1n0 () Int)
(declare-fun lam1n1 () Int)
(declare-fun lam1n2 () Int)
(declare-fun lam1n4 () Int)
(declare-fun lam1n5 () Int)
(declare-fun lam1n6 () Int)
(declare-fun lam1n3 () Int)
(declare-fun lam2n0 () Int)
(declare-fun lam2n1 () Int)
(declare-fun lam2n2 () Int)
(declare-fun lam2n4 () Int)
(declare-fun lam2n5 () Int)
(declare-fun lam2n6 () Int)
(declare-fun lam2n3 () Int)
(declare-fun lam3n0 () Int)
(declare-fun lam3n1 () Int)
(declare-fun lam3n2 () Int)
(declare-fun lam3n4 () Int)
(declare-fun lam3n5 () Int)
(declare-fun lam3n6 () Int)
(declare-fun lam3n3 () Int)
(declare-fun lam4n0 () Int)
(declare-fun lam4n1 () Int)
(declare-fun lam4n2 () Int)
(declare-fun lam4n3 () Int)
(declare-fun lam4n4 () Int)
(declare-fun lam4n5 () Int)
(declare-fun lam4n6 () Int)
(declare-fun lam5n0 () Int)
(declare-fun lam5n1 () Int)
(declare-fun lam5n2 () Int)
(declare-fun lam5n3 () Int)
(declare-fun lam5n4 () Int)
(declare-fun lam5n5 () Int)
(declare-fun lam5n6 () Int)
(declare-fun lam6n0 () Int)
(declare-fun lam6n1 () Int)
(declare-fun lam6n2 () Int)
(declare-fun lam6n3 () Int)
(declare-fun lam6n4 () Int)
(declare-fun lam6n5 () Int)
(declare-fun lam6n6 () Int)
(declare-fun lam7n0 () Int)
(declare-fun lam7n1 () Int)
(declare-fun lam7n2 () Int)
(declare-fun lam7n3 () Int)
(declare-fun lam7n4 () Int)
(declare-fun lam7n5 () Int)
(declare-fun lam7n6 () Int)
(declare-fun lam8n0 () Int)
(declare-fun lam8n1 () Int)
(declare-fun lam8n2 () Int)
(declare-fun lam8n3 () Int)
(declare-fun lam9n0 () Int)
(declare-fun lam9n1 () Int)
(declare-fun lam9n2 () Int)
(declare-fun lam9n3 () Int)
(declare-fun lam10n0 () Int)
(declare-fun lam10n1 () Int)
(declare-fun lam10n2 () Int)
(declare-fun lam10n3 () Int)
(declare-fun main_x () Int)
(declare-fun undef3 () Int)
(declare-fun main_y () Int)
(declare-fun undef4 () Int)
(declare-fun main_z () Int)
(declare-fun main_res () Int)
(declare-fun FV_main_x_2 () Int)
(declare-fun FV_main_y_2 () Int)
(declare-fun FV_main_z_2 () Int)
(declare-fun FV_main_res_2 () Int)
(declare-fun lam11n0 () Int)
(declare-fun lam11n1 () Int)
(declare-fun lam11n2 () Int)
(declare-fun lam11n3 () Int)
(declare-fun lam11n4 () Int)
(declare-fun lam11n5 () Int)
(declare-fun lam11n6 () Int)
(declare-fun lam11n7 () Int)
(declare-fun lam12n0 () Int)
(declare-fun lam12n1 () Int)
(declare-fun lam12n2 () Int)
(declare-fun lam12n3 () Int)
(declare-fun lam12n4 () Int)
(declare-fun lam12n5 () Int)
(declare-fun lam12n6 () Int)
(declare-fun lam12n7 () Int)
(declare-fun lam13n0 () Int)
(declare-fun lam13n1 () Int)
(declare-fun lam13n2 () Int)
(declare-fun lam13n3 () Int)
(declare-fun lam13n4 () Int)
(declare-fun lam13n5 () Int)
(declare-fun lam13n6 () Int)
(declare-fun FV_main_x_3 () Int)
(declare-fun FV_main_y_3 () Int)
(declare-fun FV_main_z_3 () Int)
(declare-fun FV_main_res_3 () Int)
(assert ( and ( <= ( - 1 ) Nl2main_x1 ) ( <= Nl2main_x1 1 ) ( <= ( - 1 ) Nl2main_y1 ) ( <= Nl2main_y1 1 ) ( <= ( - 1 ) Nl2main_z1 ) ( <= Nl2main_z1 1 ) ( <= ( - 1 ) Nl2main_res1 ) ( <= Nl2main_res1 1 ) ( <= ( - 1 ) Nl2main_x2 ) ( <= Nl2main_x2 1 ) ( <= ( - 1 ) Nl2main_y2 ) ( <= Nl2main_y2 1 ) ( <= ( - 1 ) Nl2main_z2 ) ( <= Nl2main_z2 1 ) ( <= ( - 1 ) Nl2main_res2 ) ( <= Nl2main_res2 1 ) ( <= ( - 1 ) Nl2main_x3 ) ( <= Nl2main_x3 1 ) ( <= ( - 1 ) Nl2main_y3 ) ( <= Nl2main_y3 1 ) ( <= ( - 1 ) Nl2main_z3 ) ( <= Nl2main_z3 1 ) ( <= ( - 1 ) Nl2main_res3 ) ( <= Nl2main_res3 1 ) ))
(assert ( or ( and ( >= lam0n0 0 ) ( >= lam0n1 0 ) ( >= lam0n2 0 ) ( >= lam0n4 0 ) ( >= lam0n5 0 ) ( >= lam0n6 0 ) ( > ( + ( * 1 lam0n0 ) ( * 1 lam0n1 ) ( * 1 lam0n2 ) ( * Nl2CT1 lam0n4 ) ( * Nl2CT2 lam0n5 ) ( * Nl2CT3 lam0n6 ) ( - 1 ) ) 0 ) ( = ( + ( * ( - 1 ) lam0n0 ) ( * Nl2main_x1 lam0n4 ) ( * Nl2main_x2 lam0n5 ) ( * Nl2main_x3 lam0n6 ) ) 0 ) ( = ( + ( * ( - 1 ) lam0n0 ) ( * 1 lam0n1 ) ( * 1 lam0n3 ) ( * Nl2main_y1 lam0n4 ) ( * Nl2main_y2 lam0n5 ) ( * Nl2main_y3 lam0n6 ) ) 0 ) ( = ( + ( * 1 lam0n0 ) ( * ( - 1 ) lam0n1 ) ( * ( - 1 ) lam0n2 ) ( * Nl2main_z1 lam0n4 ) ( * Nl2main_z2 lam0n5 ) ( * Nl2main_z3 lam0n6 ) ) 0 ) ( = ( + ( * 1 lam0n0 ) ( * Nl2main_res1 lam0n4 ) ( * Nl2main_res2 lam0n5 ) ( * Nl2main_res3 lam0n6 ) ) 0 ) ) ( and ( >= lam1n0 0 ) ( >= lam1n1 0 ) ( >= lam1n2 0 ) ( >= lam1n4 0 ) ( >= lam1n5 0 ) ( >= lam1n6 0 ) ( > ( + ( * 1 lam1n0 ) ( * 1 lam1n1 ) ( * 1 lam1n2 ) ( * Nl2CT1 lam1n4 ) ( * Nl2CT2 lam1n5 ) ( * Nl2CT3 lam1n6 ) ( - 1 ( + ( + Nl2CT1 ( * Nl2main_y1 0 ) ) ( * Nl2main_res1 1 ) ) ) ) 0 ) ( = ( + ( * ( - 1 ) lam1n0 ) ( * Nl2main_x1 lam1n4 ) ( * Nl2main_x2 lam1n5 ) ( * Nl2main_x3 lam1n6 ) ( - ( + 0 Nl2main_x1 ) ) ) 0 ) ( = ( + ( * ( - 1 ) lam1n0 ) ( * 1 lam1n1 ) ( * 1 lam1n3 ) ( * Nl2main_y1 lam1n4 ) ( * Nl2main_y2 lam1n5 ) ( * Nl2main_y3 lam1n6 ) ) 0 ) ( = ( + ( * 1 lam1n0 ) ( * ( - 1 ) lam1n1 ) ( * ( - 1 ) lam1n2 ) ( * Nl2main_z1 lam1n4 ) ( * Nl2main_z2 lam1n5 ) ( * Nl2main_z3 lam1n6 ) ( - ( + ( + 0 ( * Nl2main_y1 1 ) ) Nl2main_z1 ) ) ) 0 ) ( = ( + ( * 1 lam1n0 ) ( * Nl2main_res1 lam1n4 ) ( * Nl2main_res2 lam1n5 ) ( * Nl2main_res3 lam1n6 ) ( - ( + 0 ( * Nl2main_res1 1 ) ) ) ) 0 ) ) ))
(assert ( or ( and ( >= lam0n0 0 ) ( >= lam0n1 0 ) ( >= lam0n2 0 ) ( >= lam0n4 0 ) ( >= lam0n5 0 ) ( >= lam0n6 0 ) ( > ( + ( * 1 lam0n0 ) ( * 1 lam0n1 ) ( * 1 lam0n2 ) ( * Nl2CT1 lam0n4 ) ( * Nl2CT2 lam0n5 ) ( * Nl2CT3 lam0n6 ) ( - 1 ) ) 0 ) ( = ( + ( * ( - 1 ) lam0n0 ) ( * Nl2main_x1 lam0n4 ) ( * Nl2main_x2 lam0n5 ) ( * Nl2main_x3 lam0n6 ) ) 0 ) ( = ( + ( * ( - 1 ) lam0n0 ) ( * 1 lam0n1 ) ( * 1 lam0n3 ) ( * Nl2main_y1 lam0n4 ) ( * Nl2main_y2 lam0n5 ) ( * Nl2main_y3 lam0n6 ) ) 0 ) ( = ( + ( * 1 lam0n0 ) ( * ( - 1 ) lam0n1 ) ( * ( - 1 ) lam0n2 ) ( * Nl2main_z1 lam0n4 ) ( * Nl2main_z2 lam0n5 ) ( * Nl2main_z3 lam0n6 ) ) 0 ) ( = ( + ( * 1 lam0n0 ) ( * Nl2main_res1 lam0n4 ) ( * Nl2main_res2 lam0n5 ) ( * Nl2main_res3 lam0n6 ) ) 0 ) ) ( and ( >= lam2n0 0 ) ( >= lam2n1 0 ) ( >= lam2n2 0 ) ( >= lam2n4 0 ) ( >= lam2n5 0 ) ( >= lam2n6 0 ) ( > ( + ( * 1 lam2n0 ) ( * 1 lam2n1 ) ( * 1 lam2n2 ) ( * Nl2CT1 lam2n4 ) ( * Nl2CT2 lam2n5 ) ( * Nl2CT3 lam2n6 ) ( - 1 ( + ( + Nl2CT2 ( * Nl2main_y2 0 ) ) ( * Nl2main_res2 1 ) ) ) ) 0 ) ( = ( + ( * ( - 1 ) lam2n0 ) ( * Nl2main_x1 lam2n4 ) ( * Nl2main_x2 lam2n5 ) ( * Nl2main_x3 lam2n6 ) ( - ( + 0 Nl2main_x2 ) ) ) 0 ) ( = ( + ( * ( - 1 ) lam2n0 ) ( * 1 lam2n1 ) ( * 1 lam2n3 ) ( * Nl2main_y1 lam2n4 ) ( * Nl2main_y2 lam2n5 ) ( * Nl2main_y3 lam2n6 ) ) 0 ) ( = ( + ( * 1 lam2n0 ) ( * ( - 1 ) lam2n1 ) ( * ( - 1 ) lam2n2 ) ( * Nl2main_z1 lam2n4 ) ( * Nl2main_z2 lam2n5 ) ( * Nl2main_z3 lam2n6 ) ( - ( + ( + 0 ( * Nl2main_y2 1 ) ) Nl2main_z2 ) ) ) 0 ) ( = ( + ( * 1 lam2n0 ) ( * Nl2main_res1 lam2n4 ) ( * Nl2main_res2 lam2n5 ) ( * Nl2main_res3 lam2n6 ) ( - ( + 0 ( * Nl2main_res2 1 ) ) ) ) 0 ) ) ))
(assert ( or ( and ( >= lam0n0 0 ) ( >= lam0n1 0 ) ( >= lam0n2 0 ) ( >= lam0n4 0 ) ( >= lam0n5 0 ) ( >= lam0n6 0 ) ( > ( + ( * 1 lam0n0 ) ( * 1 lam0n1 ) ( * 1 lam0n2 ) ( * Nl2CT1 lam0n4 ) ( * Nl2CT2 lam0n5 ) ( * Nl2CT3 lam0n6 ) ( - 1 ) ) 0 ) ( = ( + ( * ( - 1 ) lam0n0 ) ( * Nl2main_x1 lam0n4 ) ( * Nl2main_x2 lam0n5 ) ( * Nl2main_x3 lam0n6 ) ) 0 ) ( = ( + ( * ( - 1 ) lam0n0 ) ( * 1 lam0n1 ) ( * 1 lam0n3 ) ( * Nl2main_y1 lam0n4 ) ( * Nl2main_y2 lam0n5 ) ( * Nl2main_y3 lam0n6 ) ) 0 ) ( = ( + ( * 1 lam0n0 ) ( * ( - 1 ) lam0n1 ) ( * ( - 1 ) lam0n2 ) ( * Nl2main_z1 lam0n4 ) ( * Nl2main_z2 lam0n5 ) ( * Nl2main_z3 lam0n6 ) ) 0 ) ( = ( + ( * 1 lam0n0 ) ( * Nl2main_res1 lam0n4 ) ( * Nl2main_res2 lam0n5 ) ( * Nl2main_res3 lam0n6 ) ) 0 ) ) ( and ( >= lam3n0 0 ) ( >= lam3n1 0 ) ( >= lam3n2 0 ) ( >= lam3n4 0 ) ( >= lam3n5 0 ) ( >= lam3n6 0 ) ( > ( + ( * 1 lam3n0 ) ( * 1 lam3n1 ) ( * 1 lam3n2 ) ( * Nl2CT1 lam3n4 ) ( * Nl2CT2 lam3n5 ) ( * Nl2CT3 lam3n6 ) ( - 1 ( + ( + Nl2CT3 ( * Nl2main_y3 0 ) ) ( * Nl2main_res3 1 ) ) ) ) 0 ) ( = ( + ( * ( - 1 ) lam3n0 ) ( * Nl2main_x1 lam3n4 ) ( * Nl2main_x2 lam3n5 ) ( * Nl2main_x3 lam3n6 ) ( - ( + 0 Nl2main_x3 ) ) ) 0 ) ( = ( + ( * ( - 1 ) lam3n0 ) ( * 1 lam3n1 ) ( * 1 lam3n3 ) ( * Nl2main_y1 lam3n4 ) ( * Nl2main_y2 lam3n5 ) ( * Nl2main_y3 lam3n6 ) ) 0 ) ( = ( + ( * 1 lam3n0 ) ( * ( - 1 ) lam3n1 ) ( * ( - 1 ) lam3n2 ) ( * Nl2main_z1 lam3n4 ) ( * Nl2main_z2 lam3n5 ) ( * Nl2main_z3 lam3n6 ) ( - ( + ( + 0 ( * Nl2main_y3 1 ) ) Nl2main_z3 ) ) ) 0 ) ( = ( + ( * 1 lam3n0 ) ( * Nl2main_res1 lam3n4 ) ( * Nl2main_res2 lam3n5 ) ( * Nl2main_res3 lam3n6 ) ( - ( + 0 ( * Nl2main_res3 1 ) ) ) ) 0 ) ) ))
(assert ( or ( and ( >= lam4n0 0 ) ( >= lam4n1 0 ) ( >= lam4n2 0 ) ( >= lam4n3 0 ) ( >= lam4n4 0 ) ( >= lam4n5 0 ) ( >= lam4n6 0 ) ( > ( + ( * 1 lam4n0 ) ( * 1 lam4n1 ) ( * 1 lam4n2 ) ( * 1 lam4n3 ) ( * Nl2CT1 lam4n4 ) ( * Nl2CT2 lam4n5 ) ( * Nl2CT3 lam4n6 ) ( - 1 ) ) 0 ) ( = ( + ( * ( - 1 ) lam4n0 ) ( * ( - 1 ) lam4n1 ) ( * Nl2main_x1 lam4n4 ) ( * Nl2main_x2 lam4n5 ) ( * Nl2main_x3 lam4n6 ) ) 0 ) ( = ( + ( * ( - 1 ) lam4n1 ) ( * ( - 1 ) lam4n2 ) ( * Nl2main_y1 lam4n4 ) ( * Nl2main_y2 lam4n5 ) ( * Nl2main_y3 lam4n6 ) ) 0 ) ( = ( + ( * 1 lam4n1 ) ( * ( - 1 ) lam4n3 ) ( * Nl2main_z1 lam4n4 ) ( * Nl2main_z2 lam4n5 ) ( * Nl2main_z3 lam4n6 ) ) 0 ) ( = ( + ( * 1 lam4n1 ) ( * Nl2main_res1 lam4n4 ) ( * Nl2main_res2 lam4n5 ) ( * Nl2main_res3 lam4n6 ) ) 0 ) ) ( and ( >= lam5n0 0 ) ( >= lam5n1 0 ) ( >= lam5n2 0 ) ( >= lam5n3 0 ) ( >= lam5n4 0 ) ( >= lam5n5 0 ) ( >= lam5n6 0 ) ( > ( + ( * 1 lam5n0 ) ( * 1 lam5n1 ) ( * 1 lam5n2 ) ( * 1 lam5n3 ) ( * Nl2CT1 lam5n4 ) ( * Nl2CT2 lam5n5 ) ( * Nl2CT3 lam5n6 ) ( - 1 ( + ( + Nl2CT1 ( * Nl2main_x1 1 ) ) ( * Nl2main_y1 ( - 1 ) ) ) ) ) 0 ) ( = ( + ( * ( - 1 ) lam5n0 ) ( * ( - 1 ) lam5n1 ) ( * Nl2main_x1 lam5n4 ) ( * Nl2main_x2 lam5n5 ) ( * Nl2main_x3 lam5n6 ) ( - ( + 0 ( * Nl2main_x1 1 ) ) ) ) 0 ) ( = ( + ( * ( - 1 ) lam5n1 ) ( * ( - 1 ) lam5n2 ) ( * Nl2main_y1 lam5n4 ) ( * Nl2main_y2 lam5n5 ) ( * Nl2main_y3 lam5n6 ) ( - ( + 0 ( * Nl2main_y1 1 ) ) ) ) 0 ) ( = ( + ( * 1 lam5n1 ) ( * ( - 1 ) lam5n3 ) ( * Nl2main_z1 lam5n4 ) ( * Nl2main_z2 lam5n5 ) ( * Nl2main_z3 lam5n6 ) ( - ( + 0 Nl2main_z1 ) ) ) 0 ) ( = ( + ( * 1 lam5n1 ) ( * Nl2main_res1 lam5n4 ) ( * Nl2main_res2 lam5n5 ) ( * Nl2main_res3 lam5n6 ) ( - ( + 0 Nl2main_res1 ) ) ) 0 ) ) ))
(assert ( or ( and ( >= lam4n0 0 ) ( >= lam4n1 0 ) ( >= lam4n2 0 ) ( >= lam4n3 0 ) ( >= lam4n4 0 ) ( >= lam4n5 0 ) ( >= lam4n6 0 ) ( > ( + ( * 1 lam4n0 ) ( * 1 lam4n1 ) ( * 1 lam4n2 ) ( * 1 lam4n3 ) ( * Nl2CT1 lam4n4 ) ( * Nl2CT2 lam4n5 ) ( * Nl2CT3 lam4n6 ) ( - 1 ) ) 0 ) ( = ( + ( * ( - 1 ) lam4n0 ) ( * ( - 1 ) lam4n1 ) ( * Nl2main_x1 lam4n4 ) ( * Nl2main_x2 lam4n5 ) ( * Nl2main_x3 lam4n6 ) ) 0 ) ( = ( + ( * ( - 1 ) lam4n1 ) ( * ( - 1 ) lam4n2 ) ( * Nl2main_y1 lam4n4 ) ( * Nl2main_y2 lam4n5 ) ( * Nl2main_y3 lam4n6 ) ) 0 ) ( = ( + ( * 1 lam4n1 ) ( * ( - 1 ) lam4n3 ) ( * Nl2main_z1 lam4n4 ) ( * Nl2main_z2 lam4n5 ) ( * Nl2main_z3 lam4n6 ) ) 0 ) ( = ( + ( * 1 lam4n1 ) ( * Nl2main_res1 lam4n4 ) ( * Nl2main_res2 lam4n5 ) ( * Nl2main_res3 lam4n6 ) ) 0 ) ) ( and ( >= lam6n0 0 ) ( >= lam6n1 0 ) ( >= lam6n2 0 ) ( >= lam6n3 0 ) ( >= lam6n4 0 ) ( >= lam6n5 0 ) ( >= lam6n6 0 ) ( > ( + ( * 1 lam6n0 ) ( * 1 lam6n1 ) ( * 1 lam6n2 ) ( * 1 lam6n3 ) ( * Nl2CT1 lam6n4 ) ( * Nl2CT2 lam6n5 ) ( * Nl2CT3 lam6n6 ) ( - 1 ( + ( + Nl2CT2 ( * Nl2main_x2 1 ) ) ( * Nl2main_y2 ( - 1 ) ) ) ) ) 0 ) ( = ( + ( * ( - 1 ) lam6n0 ) ( * ( - 1 ) lam6n1 ) ( * Nl2main_x1 lam6n4 ) ( * Nl2main_x2 lam6n5 ) ( * Nl2main_x3 lam6n6 ) ( - ( + 0 ( * Nl2main_x2 1 ) ) ) ) 0 ) ( = ( + ( * ( - 1 ) lam6n1 ) ( * ( - 1 ) lam6n2 ) ( * Nl2main_y1 lam6n4 ) ( * Nl2main_y2 lam6n5 ) ( * Nl2main_y3 lam6n6 ) ( - ( + 0 ( * Nl2main_y2 1 ) ) ) ) 0 ) ( = ( + ( * 1 lam6n1 ) ( * ( - 1 ) lam6n3 ) ( * Nl2main_z1 lam6n4 ) ( * Nl2main_z2 lam6n5 ) ( * Nl2main_z3 lam6n6 ) ( - ( + 0 Nl2main_z2 ) ) ) 0 ) ( = ( + ( * 1 lam6n1 ) ( * Nl2main_res1 lam6n4 ) ( * Nl2main_res2 lam6n5 ) ( * Nl2main_res3 lam6n6 ) ( - ( + 0 Nl2main_res2 ) ) ) 0 ) ) ))
(assert ( or ( and ( >= lam4n0 0 ) ( >= lam4n1 0 ) ( >= lam4n2 0 ) ( >= lam4n3 0 ) ( >= lam4n4 0 ) ( >= lam4n5 0 ) ( >= lam4n6 0 ) ( > ( + ( * 1 lam4n0 ) ( * 1 lam4n1 ) ( * 1 lam4n2 ) ( * 1 lam4n3 ) ( * Nl2CT1 lam4n4 ) ( * Nl2CT2 lam4n5 ) ( * Nl2CT3 lam4n6 ) ( - 1 ) ) 0 ) ( = ( + ( * ( - 1 ) lam4n0 ) ( * ( - 1 ) lam4n1 ) ( * Nl2main_x1 lam4n4 ) ( * Nl2main_x2 lam4n5 ) ( * Nl2main_x3 lam4n6 ) ) 0 ) ( = ( + ( * ( - 1 ) lam4n1 ) ( * ( - 1 ) lam4n2 ) ( * Nl2main_y1 lam4n4 ) ( * Nl2main_y2 lam4n5 ) ( * Nl2main_y3 lam4n6 ) ) 0 ) ( = ( + ( * 1 lam4n1 ) ( * ( - 1 ) lam4n3 ) ( * Nl2main_z1 lam4n4 ) ( * Nl2main_z2 lam4n5 ) ( * Nl2main_z3 lam4n6 ) ) 0 ) ( = ( + ( * 1 lam4n1 ) ( * Nl2main_res1 lam4n4 ) ( * Nl2main_res2 lam4n5 ) ( * Nl2main_res3 lam4n6 ) ) 0 ) ) ( and ( >= lam7n0 0 ) ( >= lam7n1 0 ) ( >= lam7n2 0 ) ( >= lam7n3 0 ) ( >= lam7n4 0 ) ( >= lam7n5 0 ) ( >= lam7n6 0 ) ( > ( + ( * 1 lam7n0 ) ( * 1 lam7n1 ) ( * 1 lam7n2 ) ( * 1 lam7n3 ) ( * Nl2CT1 lam7n4 ) ( * Nl2CT2 lam7n5 ) ( * Nl2CT3 lam7n6 ) ( - 1 ( + ( + Nl2CT3 ( * Nl2main_x3 1 ) ) ( * Nl2main_y3 ( - 1 ) ) ) ) ) 0 ) ( = ( + ( * ( - 1 ) lam7n0 ) ( * ( - 1 ) lam7n1 ) ( * Nl2main_x1 lam7n4 ) ( * Nl2main_x2 lam7n5 ) ( * Nl2main_x3 lam7n6 ) ( - ( + 0 ( * Nl2main_x3 1 ) ) ) ) 0 ) ( = ( + ( * ( - 1 ) lam7n1 ) ( * ( - 1 ) lam7n2 ) ( * Nl2main_y1 lam7n4 ) ( * Nl2main_y2 lam7n5 ) ( * Nl2main_y3 lam7n6 ) ( - ( + 0 ( * Nl2main_y3 1 ) ) ) ) 0 ) ( = ( + ( * 1 lam7n1 ) ( * ( - 1 ) lam7n3 ) ( * Nl2main_z1 lam7n4 ) ( * Nl2main_z2 lam7n5 ) ( * Nl2main_z3 lam7n6 ) ( - ( + 0 Nl2main_z3 ) ) ) 0 ) ( = ( + ( * 1 lam7n1 ) ( * Nl2main_res1 lam7n4 ) ( * Nl2main_res2 lam7n5 ) ( * Nl2main_res3 lam7n6 ) ( - ( + 0 Nl2main_res3 ) ) ) 0 ) ) ))
(assert ( and ( <= ( + Nl2CT1 ( * Nl2main_x1 FV_main_x_2 ) ( * Nl2main_y1 FV_main_y_2 ) ( * Nl2main_z1 FV_main_z_2 ) ( * Nl2main_res1 FV_main_res_2 ) ) 0 ) ( <= ( + Nl2CT2 ( * Nl2main_x2 FV_main_x_2 ) ( * Nl2main_y2 FV_main_y_2 ) ( * Nl2main_z2 FV_main_z_2 ) ( * Nl2main_res2 FV_main_res_2 ) ) 0 ) ( <= ( + Nl2CT3 ( * Nl2main_x3 FV_main_x_2 ) ( * Nl2main_y3 FV_main_y_2 ) ( * Nl2main_z3 FV_main_z_2 ) ( * Nl2main_res3 FV_main_res_2 ) ) 0 ) ( <= ( + 1 ( * ( - 1 ) FV_main_z_2 ) ) 0 ) ))
(assert ( or ( and ( >= lam11n0 0 ) ( >= lam11n1 0 ) ( >= lam11n2 0 ) ( >= lam11n3 0 ) ( >= lam11n4 0 ) ( >= lam11n5 0 ) ( >= lam11n6 0 ) ( >= lam11n7 0 ) ( > ( + ( * 1 lam11n2 ) ( * 1 lam11n3 ) ( * 1 lam11n4 ) ( * Nl2CT1 lam11n5 ) ( * Nl2CT2 lam11n6 ) ( * Nl2CT3 lam11n7 ) ( - 1 ) ) 0 ) ( = ( + ( * 1 lam11n0 ) ( * ( - 1 ) lam11n2 ) ( * Nl2main_x1 lam11n5 ) ( * Nl2main_x2 lam11n6 ) ( * Nl2main_x3 lam11n7 ) ) 0 ) ( = ( + ( * ( - 1 ) lam11n1 ) ( * ( - 1 ) lam11n2 ) ( * ( - 1 ) lam11n3 ) ( * Nl2main_y1 lam11n5 ) ( * Nl2main_y2 lam11n6 ) ( * Nl2main_y3 lam11n7 ) ) 0 ) ( = ( + ( * 1 lam11n1 ) ( * 1 lam11n2 ) ( * ( - 1 ) lam11n4 ) ( * Nl2main_z1 lam11n5 ) ( * Nl2main_z2 lam11n6 ) ( * Nl2main_z3 lam11n7 ) ) 0 ) ( = ( + ( * 1 lam11n2 ) ( * Nl2main_res1 lam11n5 ) ( * Nl2main_res2 lam11n6 ) ( * Nl2main_res3 lam11n7 ) ) 0 ) ) ( and ( >= lam12n0 0 ) ( >= lam12n1 0 ) ( >= lam12n2 0 ) ( >= lam12n3 0 ) ( >= lam12n4 0 ) ( >= lam12n5 0 ) ( >= lam12n6 0 ) ( >= lam12n7 0 ) ( > ( + ( * 1 lam12n1 ) ( * 1 lam12n2 ) ( * 1 lam12n3 ) ( * 1 lam12n4 ) ( * Nl2CT1 lam12n5 ) ( * Nl2CT2 lam12n6 ) ( * Nl2CT3 lam12n7 ) ( - 1 ) ) 0 ) ( = ( + ( * 1 lam12n0 ) ( * ( - 1 ) lam12n1 ) ( * Nl2main_x1 lam12n5 ) ( * Nl2main_x2 lam12n6 ) ( * Nl2main_x3 lam12n7 ) ) 0 ) ( = ( + ( * ( - 1 ) lam12n1 ) ( * 1 lam12n2 ) ( * ( - 1 ) lam12n3 ) ( * Nl2main_y1 lam12n5 ) ( * Nl2main_y2 lam12n6 ) ( * Nl2main_y3 lam12n7 ) ) 0 ) ( = ( + ( * 1 lam12n1 ) ( * ( - 1 ) lam12n2 ) ( * ( - 1 ) lam12n4 ) ( * Nl2main_z1 lam12n5 ) ( * Nl2main_z2 lam12n6 ) ( * Nl2main_z3 lam12n7 ) ) 0 ) ( = ( + ( * 1 lam12n1 ) ( * Nl2main_res1 lam12n5 ) ( * Nl2main_res2 lam12n6 ) ( * Nl2main_res3 lam12n7 ) ) 0 ) ) ( and ( >= lam13n0 0 ) ( >= lam13n1 0 ) ( >= lam13n2 0 ) ( >= lam13n3 0 ) ( >= lam13n4 0 ) ( >= lam13n5 0 ) ( >= lam13n6 0 ) ( > ( + ( * 1 lam13n0 ) ( * 1 lam13n1 ) ( * 1 lam13n2 ) ( * 1 lam13n3 ) ( * Nl2CT1 lam13n4 ) ( * Nl2CT2 lam13n5 ) ( * Nl2CT3 lam13n6 ) ( - 1 ) ) 0 ) ( = ( + ( * ( - 1 ) lam13n0 ) ( * Nl2main_x1 lam13n4 ) ( * Nl2main_x2 lam13n5 ) ( * Nl2main_x3 lam13n6 ) ) 0 ) ( = ( + ( * ( - 1 ) lam13n0 ) ( * 1 lam13n1 ) ( * 1 lam13n2 ) ( * Nl2main_y1 lam13n4 ) ( * Nl2main_y2 lam13n5 ) ( * Nl2main_y3 lam13n6 ) ) 0 ) ( = ( + ( * 1 lam13n0 ) ( * ( - 1 ) lam13n2 ) ( * ( - 1 ) lam13n3 ) ( * Nl2main_z1 lam13n4 ) ( * Nl2main_z2 lam13n5 ) ( * Nl2main_z3 lam13n6 ) ) 0 ) ( = ( + ( * 1 lam13n0 ) ( * Nl2main_res1 lam13n4 ) ( * Nl2main_res2 lam13n5 ) ( * Nl2main_res3 lam13n6 ) ) 0 ) ) ))
(assert ( and ( and ( <= ( + Nl2CT1 ( * Nl2main_x1 FV_main_x_3 ) ( * Nl2main_y1 FV_main_y_3 ) ( * Nl2main_z1 FV_main_z_3 ) ( * Nl2main_res1 FV_main_res_3 ) ) 0 ) ( <= ( + Nl2CT2 ( * Nl2main_x2 FV_main_x_3 ) ( * Nl2main_y2 FV_main_y_3 ) ( * Nl2main_z2 FV_main_z_3 ) ( * Nl2main_res2 FV_main_res_3 ) ) 0 ) ( <= ( + Nl2CT3 ( * Nl2main_x3 FV_main_x_3 ) ( * Nl2main_y3 FV_main_y_3 ) ( * Nl2main_z3 FV_main_z_3 ) ( * Nl2main_res3 FV_main_res_3 ) ) 0 ) ) ( or ( and ( <= ( + 1 ( * ( - 1 ) FV_main_x_3 ) ( * ( - 1 ) FV_main_y_3 ) FV_main_z_3 FV_main_res_3 ) 0 ) ( <= ( + 1 FV_main_y_3 ( * ( - 1 ) FV_main_z_3 ) ) 0 ) ( <= ( + 1 ( * ( - 1 ) FV_main_z_3 ) ) 0 ) ( = FV_main_y_3 0 ) ) ( and ( <= ( + 1 ( * ( - 1 ) FV_main_x_3 ) ) 0 ) ( <= ( + 1 ( * ( - 1 ) FV_main_x_3 ) ( * ( - 1 ) FV_main_y_3 ) FV_main_z_3 FV_main_res_3 ) 0 ) ( <= ( + 1 ( * ( - 1 ) FV_main_y_3 ) ) 0 ) ( <= ( + 1 ( * ( - 1 ) FV_main_z_3 ) ) 0 ) ) ) ))
(check-sat)
(exit)
